language ESSENCE' 1.0
$ minion Nodes: 1
$ minion TotalTime: 0.000377
$ Savile Row TotalTime: 0.108
letting pain_tuple1 be [2]
letting pain_tuple2 be [0]
letting pain_tuple3_tuple2 be [3]
letting pain_tuple3_tuple1 be [7]
